instances/knapsack/discrete_knapsack_uncertainty/knapsack_130_1.lp
\ Model knapsack_130_1
\ LP format - for model browsing. Use MPS format to capture full model detail.
\ Signature: 0x8c644a484ac146d4
Minimize
  - 86 x[0] - 82 x[1] - 100 x[2] - 24 x[3] - 49 x[4] - 85 x[5] - 61 x[6]
   - 83 x[7] - 58 x[8] - 70 x[9] - 79 x[10] - 91 x[11] - 55 x[12]
   - 22 x[13] - 87 x[14] - 76 x[15] - 70 x[16] - 94 x[17] - 54 x[18]
   - 53 x[19] - 69 x[20] - 19 x[21] - 72 x[22] - 32 x[23] - 97 x[24]
   - 70 x[25] - 32 x[26] - 71 x[27] - 70 x[28] - 44 x[29] - 93 x[30]
   - 52 x[31] - 24 x[32] - 95 x[33] - 47 x[34] - 53 x[35] - 13 x[36]
   - 35 x[37] - 94 x[38] - 47 x[39] - 4 x[40] - 49 x[41] - 29 x[42]
   - 19 x[43] - 46 x[44] - 55 x[45] - 36 x[46] - 72 x[47] - 4 x[48]
   - 85 x[49] - 31 x[50] - 70 x[51] - 91 x[52] - x[53] - 80 x[54]
   - 98 x[55] - 98 x[56] - 76 x[57] - 88 x[58] - 47 x[59] - 68 x[60]
   - 30 x[61] - x[62] - 21 x[63] - 10 x[64] - 9 x[65] - 45 x[66] - 45 x[67]
   - 36 x[68] - 9 x[69] - 97 x[70] - 11 x[71] - 81 x[72] - 17 x[73]
   - 14 x[74] - 10 x[75] - 26 x[76] - 25 x[77] - 60 x[78] - 35 x[79]
   - 39 x[80] - 2 x[81] - 37 x[82] - 54 x[83] - 61 x[84] - 12 x[85]
   - 58 x[86] - 35 x[87] - 96 x[88] - 58 x[89] - 18 x[90] - 33 x[91]
   - 97 x[92] - 80 x[93] - 12 x[94] - 14 x[95] - 29 x[96] - 80 x[97]
   - 32 x[98] - 40 x[99] - 36 x[100] - 9 x[101] - 90 x[102] - 73 x[103]
   - 83 x[104] - 95 x[105] - 46 x[106] - 36 x[107] - 10 x[108] - 100 x[109]
   - 73 x[110] - 38 x[111] - 81 x[112] - 83 x[113] - 62 x[114] - 65 x[115]
   - 15 x[116] - 17 x[117] - 74 x[118] - 11 x[119] - 33 x[120] - 38 x[121]
   - 18 x[122] - 23 x[123] - 3 x[124] - 96 x[125] - 36 x[126] - 50 x[127]
   - 23 x[128] - 84 x[129]
Subject To
 primal_upper: 9 x[0] + 82 x[1] + 84 x[2] + 89 x[3] + 66 x[4] + 35 x[5]
   + 7 x[6] + 33 x[7] + 79 x[8] + 72 x[9] + 37 x[10] + 93 x[11] + 30 x[12]
   + 86 x[13] + 2 x[14] + 78 x[15] + 3 x[16] + 2 x[17] + 23 x[18]
   + 36 x[19] + 35 x[20] + 57 x[21] + 70 x[22] + 12 x[23] + 2 x[24]
   + 42 x[25] + 60 x[26] + 29 x[27] + 39 x[28] + 25 x[29] + 75 x[30]
   + x[31] + 5 x[32] + 27 x[33] + 78 x[34] + 79 x[35] + 38 x[36] + 42 x[37]
   + 38 x[38] + 20 x[39] + x[40] + 95 x[41] + 16 x[42] + 47 x[43]
   + 53 x[44] + 60 x[45] + 59 x[46] + 59 x[47] + 61 x[48] + 18 x[49]
   + 4 x[50] + 42 x[51] + 7 x[52] + 70 x[53] + 74 x[54] + 69 x[55]
   + 3 x[56] + 64 x[57] + 22 x[58] + 72 x[59] + 82 x[60] + 44 x[61]
   + 13 x[62] + 28 x[63] + 61 x[64] + 78 x[65] + 26 x[66] + 52 x[67]
   + 90 x[68] + 19 x[69] + 87 x[70] + 99 x[71] + 84 x[72] + 37 x[73]
   + 85 x[74] + 78 x[75] + 12 x[76] + 69 x[77] + 82 x[78] + 8 x[79]
   + 15 x[80] + 99 x[81] + 100 x[82] + 71 x[83] + 15 x[84] + 75 x[85]
   + 89 x[86] + 98 x[87] + 80 x[88] + 25 x[89] + 70 x[90] + 74 x[91]
   + 18 x[92] + 41 x[93] + 38 x[94] + 99 x[95] + 47 x[96] + 58 x[97]
   + 18 x[98] + 82 x[99] + 55 x[100] + 94 x[101] + 96 x[102] + 82 x[103]
   + 11 x[104] + 20 x[105] + 53 x[106] + 12 x[107] + 40 x[108] + 47 x[109]
   + 96 x[110] + 13 x[111] + 39 x[112] + 99 x[113] + 43 x[114] + 60 x[115]
   + 53 x[116] + 71 x[117] + 15 x[118] + 10 x[119] + 33 x[120] + 46 x[121]
   + 93 x[122] + 28 x[123] + 63 x[124] + 24 x[125] + 49 x[126] + 85 x[127]
   + 16 x[128] + 13 x[129] + 0.9 r[0] + 8.2 r[1] + 8.4 r[2] + 8.9 r[3]
   + 6.6 r[4] + 3.5 r[5] + 0.7 r[6] + 3.3 r[7] + 7.9 r[8] + 7.2 r[9]
   + 3.7 r[10] + 9.3 r[11] + 3 r[12] + 8.6 r[13] + 0.2 r[14] + 7.8 r[15]
   + 0.3 r[16] + 0.2 r[17] + 2.3 r[18] + 3.6 r[19] + 3.5 r[20] + 5.7 r[21]
   + 7 r[22] + 1.2 r[23] + 0.2 r[24] + 4.2 r[25] + 6 r[26] + 2.9 r[27]
   + 3.9 r[28] + 2.5 r[29] + 7.5 r[30] + 0.1 r[31] + 0.5 r[32] + 2.7 r[33]
   + 7.8 r[34] + 7.9 r[35] + 3.8 r[36] + 4.2 r[37] + 3.8 r[38] + 2 r[39]
   + 0.1 r[40] + 9.5 r[41] + 1.6 r[42] + 4.7 r[43] + 5.3 r[44] + 6 r[45]
   + 5.9 r[46] + 5.9 r[47] + 6.1 r[48] + 1.8 r[49] + 0.4 r[50] + 4.2 r[51]
   + 0.7 r[52] + 7 r[53] + 7.4 r[54] + 6.9 r[55] + 0.3 r[56] + 6.4 r[57]
   + 2.2 r[58] + 7.2 r[59] + 8.2 r[60] + 4.4 r[61] + 1.3 r[62] + 2.8 r[63]
   + 6.1 r[64] + 7.8 r[65] + 2.6 r[66] + 5.2 r[67] + 9 r[68] + 1.9 r[69]
   + 8.7 r[70] + 9.9 r[71] + 8.4 r[72] + 3.7 r[73] + 8.5 r[74] + 7.8 r[75]
   + 1.2 r[76] + 6.9 r[77] + 8.2 r[78] + 0.8 r[79] + 1.5 r[80] + 9.9 r[81]
   + 10 r[82] + 7.1 r[83] + 1.5 r[84] + 7.5 r[85] + 8.9 r[86] + 9.8 r[87]
   + 8 r[88] + 2.5 r[89] + 7 r[90] + 7.4 r[91] + 1.8 r[92] + 4.1 r[93]
   + 3.8 r[94] + 9.9 r[95] + 4.7 r[96] + 5.8 r[97] + 1.8 r[98] + 8.2 r[99]
   + 5.5 r[100] + 9.4 r[101] + 9.6 r[102] + 8.2 r[103] + 1.1 r[104]
   + 2 r[105] + 5.3 r[106] + 1.2 r[107] + 4 r[108] + 4.7 r[109]
   + 9.6 r[110] + 1.3 r[111] + 3.9 r[112] + 9.9 r[113] + 4.3 r[114]
   + 6 r[115] + 5.3 r[116] + 7.1 r[117] + 1.5 r[118] + r[119] + 3.3 r[120]
   + 4.6 r[121] + 9.3 r[122] + 2.8 r[123] + 6.3 r[124] + 2.4 r[125]
   + 4.9 r[126] + 8.5 r[127] + 1.6 r[128] + 1.3 r[129] <= 611
 primal_lower: 0.595799496175109 x[0] + 3.494986534718773 x[1]
   + 0.1641810052517524 x[2] + 3.876030438781842 x[3]
   + 1.789217031476268 x[4] + 3.966231313387856 x[5]
   + 2.883747068530691 x[6] + 2.384576333036573 x[7]
   + 4.282558427417518 x[8] + 3.167028365206969 x[9]
   + 1.320225747436145 x[10] + 1.86157024896896 x[11]
   + 2.404542006250671 x[12] + 3.975033591154526 x[13]
   + 1.007208430267062 x[14] + 0.2720997311808155 x[15]
   + 0.4706561134983783 x[16] + 0.969136046338038 x[17]
   + 1.207021368397663 x[18] + 3.811737272745942 x[19]
   + 1.015391710273737 x[20] + 1.759691165786773 x[21]
   + 1.344461153891746 x[22] + 4.175820778870198 x[23]
   + 2.850379845629378 x[24] + 0.8037269410511345 x[25]
   + 0.906280233602098 x[26] + 3.491678043938558 x[27]
   + 2.780139115900522 x[28] + 1.556451550185143 x[29]
   + 0.4255838207227405 x[30] + 4.050953663048793 x[31]
   + 1.311816129143144 x[32] + 2.243329250091178 x[33]
   + 2.042264999345533 x[34] + 4.152649884301238 x[35]
   + 2.311271819212493 x[36] + 0.1988642847523653 x[37]
   + 2.366874946213981 x[38] + 2.056484640645086 x[39]
   + 4.697395098678521 x[40] + 1.889524189859335 x[41]
   + 1.852220258719714 x[42] + 0.1692697632819783 x[43]
   + 4.546605119070159 x[44] + 2.339198075868327 x[45]
   + 1.559689660729041 x[46] + 3.055763689065825 x[47]
   + 0.5101174569990489 x[48] + 0.7312991157128655 x[49]
   + 0.8786524699237426 x[50] + 2.038293149578776 x[51]
   + 1.459750128522675 x[52] + 3.379067302733556 x[53]
   + 0.6626081044732636 x[54] + 3.005541168158969 x[55]
   + 4.534261708930431 x[56] + 2.853065745921008 x[57]
   + 1.464393407096263 x[58] + 2.524072965974793 x[59]
   + 3.736873587248797 x[60] + 1.994289928793522 x[61]
   + 4.499615045082693 x[62] + 2.968442830425735 x[63]
   + 0.4999495636151161 x[64] + 0.8012722609691484 x[65]
   + 2.048256510691263 x[66] + 4.375495572353642 x[67]
   + 0.6634435972733294 x[68] + 1.332966089350975 x[69]
   + 2.924465811957532 x[70] + 4.556420301236326 x[71]
   + 0.660239550726441 x[72] + 2.331187166301824 x[73]
   + 0.8733220424514962 x[74] + 0.4354320245929492 x[75]
   + 4.382504823233021 x[76] + 3.787541166069099 x[77]
   + 2.418984778718729 x[78] + 3.569938136773232 x[79]
   + 4.401502391112219 x[80] + 2.57321394525081 x[81]
   + 2.309117134406064 x[82] + 3.550702785037571 x[83]
   + 0.5976482031783927 x[84] + 2.185419991867758 x[85]
   + 2.767863140143336 x[86] + 4.506817652907216 x[87]
   + 0.1302673588428768 x[88] + 2.699775858251844 x[89]
   + 3.730231026779868 x[90] + 3.836360848993378 x[91]
   + 3.753337295241357 x[92] + 0.4625654626187314 x[93]
   + 1.210058407949789 x[94] + 1.018195983202251 x[95]
   + 1.332439583553773 x[96] + 1.234800207868783 x[97]
   + 3.241493655486211 x[98] + 4.386490368224638 x[99]
   + 4.36929979465215 x[100] + 2.491088044734549 x[101]
   + 2.679154390292247 x[102] + 1.279357033095507 x[103]
   + 0.67024643759304 x[104] + 1.330917117124862 x[105]
   + 4.383367459171413 x[106] + 1.408584923713573 x[107]
   + 3.945318650612772 x[108] + 3.640324548914815 x[109]
   + 1.149709574267491 x[110] + 4.128015814052032 x[111]
   + 2.514701300957493 x[112] + 1.841058103397588 x[113]
   + 3.776321621533035 x[114] + 4.78517553137079 x[115]
   + 3.609619123587871 x[116] + 0.0181556670867534 x[117]
   + 2.691535660373661 x[118] + 3.299675915057971 x[119]
   + 0.9313106176544661 x[120] + 4.412028490367179 x[121]
   + 4.669675793321157 x[122] + 4.34392025238173 x[123]
   + 2.558694992603888 x[124] + 2.087965062094296 x[125]
   + 3.740921173072243 x[126] + 3.159503948244723 x[127]
   + 1.554995925732425 x[128] + 4.120600018589818 x[129] + 92 u[0]
   + 89 u[1] + 95 u[2] + 12 u[3] + 33 u[4] + 70 u[5] + 46 u[6] + 12 u[7]
   + 2 u[8] + 59 u[9] + 16 u[10] + 28 u[11] + 73 u[12] + 29 u[13]
   + 45 u[14] + 97 u[15] + 98 u[16] + 37 u[17] + 6 u[18] + 15 u[19]
   + 50 u[20] + 56 u[21] + 57 u[22] + 23 u[23] + 13 u[24] + 37 u[25]
   + 47 u[26] + 28 u[27] + 70 u[28] + 84 u[29] + 74 u[30] + 36 u[31]
   + 76 u[32] + 26 u[33] + 21 u[34] + 6 u[35] + u[36] + 69 u[37] + u[38]
   + 39 u[39] + 80 u[40] + 58 u[41] + 83 u[42] + 54 u[43] + 48 u[44]
   + 47 u[45] + 18 u[46] + 22 u[47] + 100 u[48] + 21 u[49] + 47 u[50]
   + 9 u[51] + 38 u[52] + 73 u[53] + 53 u[54] + 64 u[55] + 22 u[56]
   + 27 u[57] + 57 u[58] + 3 u[59] + 13 u[60] + 63 u[61] + 16 u[62]
   + 59 u[63] + 84 u[64] + 33 u[65] + 21 u[66] + 75 u[67] + 5 u[68]
   + 42 u[69] + 34 u[70] + 82 u[71] + 59 u[72] + 84 u[73] + 12 u[74]
   + 9 u[75] + 87 u[76] + 36 u[77] + 25 u[78] + 99 u[79] + 66 u[80]
   + 30 u[81] + 83 u[82] + 14 u[83] + 90 u[84] + 22 u[85] + 64 u[86]
   + 65 u[87] + 87 u[88] + 100 u[89] + 5 u[90] + 5 u[91] + 89 u[92]
   + 60 u[93] + 45 u[94] + 58 u[95] + 78 u[96] + 81 u[97] + 57 u[98]
   + 93 u[99] + 94 u[100] + 41 u[101] + 27 u[102] + 61 u[103] + 94 u[104]
   + 83 u[105] + 40 u[106] + 3 u[107] + 27 u[108] + 94 u[109] + 91 u[110]
   + 92 u[111] + 38 u[112] + 90 u[113] + 78 u[114] + 19 u[115] + 92 u[116]
   + 30 u[117] + 26 u[118] + 49 u[119] + 24 u[120] + 57 u[121] + 36 u[122]
   + 39 u[123] + 86 u[124] + 75 u[125] + 72 u[126] + 28 u[127] + 95 u[128]
   + 76 u[129] <= 85007
 mccormick1[0]: - u[0] + r[0] <= 0
 mccormick1[1]: - u[1] + r[1] <= 0
 mccormick1[2]: - u[2] + r[2] <= 0
 mccormick1[3]: - u[3] + r[3] <= 0
 mccormick1[4]: - u[4] + r[4] <= 0
 mccormick1[5]: - u[5] + r[5] <= 0
 mccormick1[6]: - u[6] + r[6] <= 0
 mccormick1[7]: - u[7] + r[7] <= 0
 mccormick1[8]: - u[8] + r[8] <= 0
 mccormick1[9]: - u[9] + r[9] <= 0
 mccormick1[10]: - u[10] + r[10] <= 0
 mccormick1[11]: - u[11] + r[11] <= 0
 mccormick1[12]: - u[12] + r[12] <= 0
 mccormick1[13]: - u[13] + r[13] <= 0
 mccormick1[14]: - u[14] + r[14] <= 0
 mccormick1[15]: - u[15] + r[15] <= 0
 mccormick1[16]: - u[16] + r[16] <= 0
 mccormick1[17]: - u[17] + r[17] <= 0
 mccormick1[18]: - u[18] + r[18] <= 0
 mccormick1[19]: - u[19] + r[19] <= 0
 mccormick1[20]: - u[20] + r[20] <= 0
 mccormick1[21]: - u[21] + r[21] <= 0
 mccormick1[22]: - u[22] + r[22] <= 0
 mccormick1[23]: - u[23] + r[23] <= 0
 mccormick1[24]: - u[24] + r[24] <= 0
 mccormick1[25]: - u[25] + r[25] <= 0
 mccormick1[26]: - u[26] + r[26] <= 0
 mccormick1[27]: - u[27] + r[27] <= 0
 mccormick1[28]: - u[28] + r[28] <= 0
 mccormick1[29]: - u[29] + r[29] <= 0
 mccormick1[30]: - u[30] + r[30] <= 0
 mccormick1[31]: - u[31] + r[31] <= 0
 mccormick1[32]: - u[32] + r[32] <= 0
 mccormick1[33]: - u[33] + r[33] <= 0
 mccormick1[34]: - u[34] + r[34] <= 0
 mccormick1[35]: - u[35] + r[35] <= 0
 mccormick1[36]: - u[36] + r[36] <= 0
 mccormick1[37]: - u[37] + r[37] <= 0
 mccormick1[38]: - u[38] + r[38] <= 0
 mccormick1[39]: - u[39] + r[39] <= 0
 mccormick1[40]: - u[40] + r[40] <= 0
 mccormick1[41]: - u[41] + r[41] <= 0
 mccormick1[42]: - u[42] + r[42] <= 0
 mccormick1[43]: - u[43] + r[43] <= 0
 mccormick1[44]: - u[44] + r[44] <= 0
 mccormick1[45]: - u[45] + r[45] <= 0
 mccormick1[46]: - u[46] + r[46] <= 0
 mccormick1[47]: - u[47] + r[47] <= 0
 mccormick1[48]: - u[48] + r[48] <= 0
 mccormick1[49]: - u[49] + r[49] <= 0
 mccormick1[50]: - u[50] + r[50] <= 0
 mccormick1[51]: - u[51] + r[51] <= 0
 mccormick1[52]: - u[52] + r[52] <= 0
 mccormick1[53]: - u[53] + r[53] <= 0
 mccormick1[54]: - u[54] + r[54] <= 0
 mccormick1[55]: - u[55] + r[55] <= 0
 mccormick1[56]: - u[56] + r[56] <= 0
 mccormick1[57]: - u[57] + r[57] <= 0
 mccormick1[58]: - u[58] + r[58] <= 0
 mccormick1[59]: - u[59] + r[59] <= 0
 mccormick1[60]: - u[60] + r[60] <= 0
 mccormick1[61]: - u[61] + r[61] <= 0
 mccormick1[62]: - u[62] + r[62] <= 0
 mccormick1[63]: - u[63] + r[63] <= 0
 mccormick1[64]: - u[64] + r[64] <= 0
 mccormick1[65]: - u[65] + r[65] <= 0
 mccormick1[66]: - u[66] + r[66] <= 0
 mccormick1[67]: - u[67] + r[67] <= 0
 mccormick1[68]: - u[68] + r[68] <= 0
 mccormick1[69]: - u[69] + r[69] <= 0
 mccormick1[70]: - u[70] + r[70] <= 0
 mccormick1[71]: - u[71] + r[71] <= 0
 mccormick1[72]: - u[72] + r[72] <= 0
 mccormick1[73]: - u[73] + r[73] <= 0
 mccormick1[74]: - u[74] + r[74] <= 0
 mccormick1[75]: - u[75] + r[75] <= 0
 mccormick1[76]: - u[76] + r[76] <= 0
 mccormick1[77]: - u[77] + r[77] <= 0
 mccormick1[78]: - u[78] + r[78] <= 0
 mccormick1[79]: - u[79] + r[79] <= 0
 mccormick1[80]: - u[80] + r[80] <= 0
 mccormick1[81]: - u[81] + r[81] <= 0
 mccormick1[82]: - u[82] + r[82] <= 0
 mccormick1[83]: - u[83] + r[83] <= 0
 mccormick1[84]: - u[84] + r[84] <= 0
 mccormick1[85]: - u[85] + r[85] <= 0
 mccormick1[86]: - u[86] + r[86] <= 0
 mccormick1[87]: - u[87] + r[87] <= 0
 mccormick1[88]: - u[88] + r[88] <= 0
 mccormick1[89]: - u[89] + r[89] <= 0
 mccormick1[90]: - u[90] + r[90] <= 0
 mccormick1[91]: - u[91] + r[91] <= 0
 mccormick1[92]: - u[92] + r[92] <= 0
 mccormick1[93]: - u[93] + r[93] <= 0
 mccormick1[94]: - u[94] + r[94] <= 0
 mccormick1[95]: - u[95] + r[95] <= 0
 mccormick1[96]: - u[96] + r[96] <= 0
 mccormick1[97]: - u[97] + r[97] <= 0
 mccormick1[98]: - u[98] + r[98] <= 0
 mccormick1[99]: - u[99] + r[99] <= 0
 mccormick1[100]: - u[100] + r[100] <= 0
 mccormick1[101]: - u[101] + r[101] <= 0
 mccormick1[102]: - u[102] + r[102] <= 0
 mccormick1[103]: - u[103] + r[103] <= 0
 mccormick1[104]: - u[104] + r[104] <= 0
 mccormick1[105]: - u[105] + r[105] <= 0
 mccormick1[106]: - u[106] + r[106] <= 0
 mccormick1[107]: - u[107] + r[107] <= 0
 mccormick1[108]: - u[108] + r[108] <= 0
 mccormick1[109]: - u[109] + r[109] <= 0
 mccormick1[110]: - u[110] + r[110] <= 0
 mccormick1[111]: - u[111] + r[111] <= 0
 mccormick1[112]: - u[112] + r[112] <= 0
 mccormick1[113]: - u[113] + r[113] <= 0
 mccormick1[114]: - u[114] + r[114] <= 0
 mccormick1[115]: - u[115] + r[115] <= 0
 mccormick1[116]: - u[116] + r[116] <= 0
 mccormick1[117]: - u[117] + r[117] <= 0
 mccormick1[118]: - u[118] + r[118] <= 0
 mccormick1[119]: - u[119] + r[119] <= 0
 mccormick1[120]: - u[120] + r[120] <= 0
 mccormick1[121]: - u[121] + r[121] <= 0
 mccormick1[122]: - u[122] + r[122] <= 0
 mccormick1[123]: - u[123] + r[123] <= 0
 mccormick1[124]: - u[124] + r[124] <= 0
 mccormick1[125]: - u[125] + r[125] <= 0
 mccormick1[126]: - u[126] + r[126] <= 0
 mccormick1[127]: - u[127] + r[127] <= 0
 mccormick1[128]: - u[128] + r[128] <= 0
 mccormick1[129]: - u[129] + r[129] <= 0
 mccormick2[0]: - x[0] + r[0] <= 0
 mccormick2[1]: - x[1] + r[1] <= 0
 mccormick2[2]: - x[2] + r[2] <= 0
 mccormick2[3]: - x[3] + r[3] <= 0
 mccormick2[4]: - x[4] + r[4] <= 0
 mccormick2[5]: - x[5] + r[5] <= 0
 mccormick2[6]: - x[6] + r[6] <= 0
 mccormick2[7]: - x[7] + r[7] <= 0
 mccormick2[8]: - x[8] + r[8] <= 0
 mccormick2[9]: - x[9] + r[9] <= 0
 mccormick2[10]: - x[10] + r[10] <= 0
 mccormick2[11]: - x[11] + r[11] <= 0
 mccormick2[12]: - x[12] + r[12] <= 0
 mccormick2[13]: - x[13] + r[13] <= 0
 mccormick2[14]: - x[14] + r[14] <= 0
 mccormick2[15]: - x[15] + r[15] <= 0
 mccormick2[16]: - x[16] + r[16] <= 0
 mccormick2[17]: - x[17] + r[17] <= 0
 mccormick2[18]: - x[18] + r[18] <= 0
 mccormick2[19]: - x[19] + r[19] <= 0
 mccormick2[20]: - x[20] + r[20] <= 0
 mccormick2[21]: - x[21] + r[21] <= 0
 mccormick2[22]: - x[22] + r[22] <= 0
 mccormick2[23]: - x[23] + r[23] <= 0
 mccormick2[24]: - x[24] + r[24] <= 0
 mccormick2[25]: - x[25] + r[25] <= 0
 mccormick2[26]: - x[26] + r[26] <= 0
 mccormick2[27]: - x[27] + r[27] <= 0
 mccormick2[28]: - x[28] + r[28] <= 0
 mccormick2[29]: - x[29] + r[29] <= 0
 mccormick2[30]: - x[30] + r[30] <= 0
 mccormick2[31]: - x[31] + r[31] <= 0
 mccormick2[32]: - x[32] + r[32] <= 0
 mccormick2[33]: - x[33] + r[33] <= 0
 mccormick2[34]: - x[34] + r[34] <= 0
 mccormick2[35]: - x[35] + r[35] <= 0
 mccormick2[36]: - x[36] + r[36] <= 0
 mccormick2[37]: - x[37] + r[37] <= 0
 mccormick2[38]: - x[38] + r[38] <= 0
 mccormick2[39]: - x[39] + r[39] <= 0
 mccormick2[40]: - x[40] + r[40] <= 0
 mccormick2[41]: - x[41] + r[41] <= 0
 mccormick2[42]: - x[42] + r[42] <= 0
 mccormick2[43]: - x[43] + r[43] <= 0
 mccormick2[44]: - x[44] + r[44] <= 0
 mccormick2[45]: - x[45] + r[45] <= 0
 mccormick2[46]: - x[46] + r[46] <= 0
 mccormick2[47]: - x[47] + r[47] <= 0
 mccormick2[48]: - x[48] + r[48] <= 0
 mccormick2[49]: - x[49] + r[49] <= 0
 mccormick2[50]: - x[50] + r[50] <= 0
 mccormick2[51]: - x[51] + r[51] <= 0
 mccormick2[52]: - x[52] + r[52] <= 0
 mccormick2[53]: - x[53] + r[53] <= 0
 mccormick2[54]: - x[54] + r[54] <= 0
 mccormick2[55]: - x[55] + r[55] <= 0
 mccormick2[56]: - x[56] + r[56] <= 0
 mccormick2[57]: - x[57] + r[57] <= 0
 mccormick2[58]: - x[58] + r[58] <= 0
 mccormick2[59]: - x[59] + r[59] <= 0
 mccormick2[60]: - x[60] + r[60] <= 0
 mccormick2[61]: - x[61] + r[61] <= 0
 mccormick2[62]: - x[62] + r[62] <= 0
 mccormick2[63]: - x[63] + r[63] <= 0
 mccormick2[64]: - x[64] + r[64] <= 0
 mccormick2[65]: - x[65] + r[65] <= 0
 mccormick2[66]: - x[66] + r[66] <= 0
 mccormick2[67]: - x[67] + r[67] <= 0
 mccormick2[68]: - x[68] + r[68] <= 0
 mccormick2[69]: - x[69] + r[69] <= 0
 mccormick2[70]: - x[70] + r[70] <= 0
 mccormick2[71]: - x[71] + r[71] <= 0
 mccormick2[72]: - x[72] + r[72] <= 0
 mccormick2[73]: - x[73] + r[73] <= 0
 mccormick2[74]: - x[74] + r[74] <= 0
 mccormick2[75]: - x[75] + r[75] <= 0
 mccormick2[76]: - x[76] + r[76] <= 0
 mccormick2[77]: - x[77] + r[77] <= 0
 mccormick2[78]: - x[78] + r[78] <= 0
 mccormick2[79]: - x[79] + r[79] <= 0
 mccormick2[80]: - x[80] + r[80] <= 0
 mccormick2[81]: - x[81] + r[81] <= 0
 mccormick2[82]: - x[82] + r[82] <= 0
 mccormick2[83]: - x[83] + r[83] <= 0
 mccormick2[84]: - x[84] + r[84] <= 0
 mccormick2[85]: - x[85] + r[85] <= 0
 mccormick2[86]: - x[86] + r[86] <= 0
 mccormick2[87]: - x[87] + r[87] <= 0
 mccormick2[88]: - x[88] + r[88] <= 0
 mccormick2[89]: - x[89] + r[89] <= 0
 mccormick2[90]: - x[90] + r[90] <= 0
 mccormick2[91]: - x[91] + r[91] <= 0
 mccormick2[92]: - x[92] + r[92] <= 0
 mccormick2[93]: - x[93] + r[93] <= 0
 mccormick2[94]: - x[94] + r[94] <= 0
 mccormick2[95]: - x[95] + r[95] <= 0
 mccormick2[96]: - x[96] + r[96] <= 0
 mccormick2[97]: - x[97] + r[97] <= 0
 mccormick2[98]: - x[98] + r[98] <= 0
 mccormick2[99]: - x[99] + r[99] <= 0
 mccormick2[100]: - x[100] + r[100] <= 0
 mccormick2[101]: - x[101] + r[101] <= 0
 mccormick2[102]: - x[102] + r[102] <= 0
 mccormick2[103]: - x[103] + r[103] <= 0
 mccormick2[104]: - x[104] + r[104] <= 0
 mccormick2[105]: - x[105] + r[105] <= 0
 mccormick2[106]: - x[106] + r[106] <= 0
 mccormick2[107]: - x[107] + r[107] <= 0
 mccormick2[108]: - x[108] + r[108] <= 0
 mccormick2[109]: - x[109] + r[109] <= 0
 mccormick2[110]: - x[110] + r[110] <= 0
 mccormick2[111]: - x[111] + r[111] <= 0
 mccormick2[112]: - x[112] + r[112] <= 0
 mccormick2[113]: - x[113] + r[113] <= 0
 mccormick2[114]: - x[114] + r[114] <= 0
 mccormick2[115]: - x[115] + r[115] <= 0
 mccormick2[116]: - x[116] + r[116] <= 0
 mccormick2[117]: - x[117] + r[117] <= 0
 mccormick2[118]: - x[118] + r[118] <= 0
 mccormick2[119]: - x[119] + r[119] <= 0
 mccormick2[120]: - x[120] + r[120] <= 0
 mccormick2[121]: - x[121] + r[121] <= 0
 mccormick2[122]: - x[122] + r[122] <= 0
 mccormick2[123]: - x[123] + r[123] <= 0
 mccormick2[124]: - x[124] + r[124] <= 0
 mccormick2[125]: - x[125] + r[125] <= 0
 mccormick2[126]: - x[126] + r[126] <= 0
 mccormick2[127]: - x[127] + r[127] <= 0
 mccormick2[128]: - x[128] + r[128] <= 0
 mccormick2[129]: - x[129] + r[129] <= 0
 mccormick3[0]: x[0] + u[0] - r[0] <= 1
 mccormick3[1]: x[1] + u[1] - r[1] <= 1
 mccormick3[2]: x[2] + u[2] - r[2] <= 1
 mccormick3[3]: x[3] + u[3] - r[3] <= 1
 mccormick3[4]: x[4] + u[4] - r[4] <= 1
 mccormick3[5]: x[5] + u[5] - r[5] <= 1
 mccormick3[6]: x[6] + u[6] - r[6] <= 1
 mccormick3[7]: x[7] + u[7] - r[7] <= 1
 mccormick3[8]: x[8] + u[8] - r[8] <= 1
 mccormick3[9]: x[9] + u[9] - r[9] <= 1
 mccormick3[10]: x[10] + u[10] - r[10] <= 1
 mccormick3[11]: x[11] + u[11] - r[11] <= 1
 mccormick3[12]: x[12] + u[12] - r[12] <= 1
 mccormick3[13]: x[13] + u[13] - r[13] <= 1
 mccormick3[14]: x[14] + u[14] - r[14] <= 1
 mccormick3[15]: x[15] + u[15] - r[15] <= 1
 mccormick3[16]: x[16] + u[16] - r[16] <= 1
 mccormick3[17]: x[17] + u[17] - r[17] <= 1
 mccormick3[18]: x[18] + u[18] - r[18] <= 1
 mccormick3[19]: x[19] + u[19] - r[19] <= 1
 mccormick3[20]: x[20] + u[20] - r[20] <= 1
 mccormick3[21]: x[21] + u[21] - r[21] <= 1
 mccormick3[22]: x[22] + u[22] - r[22] <= 1
 mccormick3[23]: x[23] + u[23] - r[23] <= 1
 mccormick3[24]: x[24] + u[24] - r[24] <= 1
 mccormick3[25]: x[25] + u[25] - r[25] <= 1
 mccormick3[26]: x[26] + u[26] - r[26] <= 1
 mccormick3[27]: x[27] + u[27] - r[27] <= 1
 mccormick3[28]: x[28] + u[28] - r[28] <= 1
 mccormick3[29]: x[29] + u[29] - r[29] <= 1
 mccormick3[30]: x[30] + u[30] - r[30] <= 1
 mccormick3[31]: x[31] + u[31] - r[31] <= 1
 mccormick3[32]: x[32] + u[32] - r[32] <= 1
 mccormick3[33]: x[33] + u[33] - r[33] <= 1
 mccormick3[34]: x[34] + u[34] - r[34] <= 1
 mccormick3[35]: x[35] + u[35] - r[35] <= 1
 mccormick3[36]: x[36] + u[36] - r[36] <= 1
 mccormick3[37]: x[37] + u[37] - r[37] <= 1
 mccormick3[38]: x[38] + u[38] - r[38] <= 1
 mccormick3[39]: x[39] + u[39] - r[39] <= 1
 mccormick3[40]: x[40] + u[40] - r[40] <= 1
 mccormick3[41]: x[41] + u[41] - r[41] <= 1
 mccormick3[42]: x[42] + u[42] - r[42] <= 1
 mccormick3[43]: x[43] + u[43] - r[43] <= 1
 mccormick3[44]: x[44] + u[44] - r[44] <= 1
 mccormick3[45]: x[45] + u[45] - r[45] <= 1
 mccormick3[46]: x[46] + u[46] - r[46] <= 1
 mccormick3[47]: x[47] + u[47] - r[47] <= 1
 mccormick3[48]: x[48] + u[48] - r[48] <= 1
 mccormick3[49]: x[49] + u[49] - r[49] <= 1
 mccormick3[50]: x[50] + u[50] - r[50] <= 1
 mccormick3[51]: x[51] + u[51] - r[51] <= 1
 mccormick3[52]: x[52] + u[52] - r[52] <= 1
 mccormick3[53]: x[53] + u[53] - r[53] <= 1
 mccormick3[54]: x[54] + u[54] - r[54] <= 1
 mccormick3[55]: x[55] + u[55] - r[55] <= 1
 mccormick3[56]: x[56] + u[56] - r[56] <= 1
 mccormick3[57]: x[57] + u[57] - r[57] <= 1
 mccormick3[58]: x[58] + u[58] - r[58] <= 1
 mccormick3[59]: x[59] + u[59] - r[59] <= 1
 mccormick3[60]: x[60] + u[60] - r[60] <= 1
 mccormick3[61]: x[61] + u[61] - r[61] <= 1
 mccormick3[62]: x[62] + u[62] - r[62] <= 1
 mccormick3[63]: x[63] + u[63] - r[63] <= 1
 mccormick3[64]: x[64] + u[64] - r[64] <= 1
 mccormick3[65]: x[65] + u[65] - r[65] <= 1
 mccormick3[66]: x[66] + u[66] - r[66] <= 1
 mccormick3[67]: x[67] + u[67] - r[67] <= 1
 mccormick3[68]: x[68] + u[68] - r[68] <= 1
 mccormick3[69]: x[69] + u[69] - r[69] <= 1
 mccormick3[70]: x[70] + u[70] - r[70] <= 1
 mccormick3[71]: x[71] + u[71] - r[71] <= 1
 mccormick3[72]: x[72] + u[72] - r[72] <= 1
 mccormick3[73]: x[73] + u[73] - r[73] <= 1
 mccormick3[74]: x[74] + u[74] - r[74] <= 1
 mccormick3[75]: x[75] + u[75] - r[75] <= 1
 mccormick3[76]: x[76] + u[76] - r[76] <= 1
 mccormick3[77]: x[77] + u[77] - r[77] <= 1
 mccormick3[78]: x[78] + u[78] - r[78] <= 1
 mccormick3[79]: x[79] + u[79] - r[79] <= 1
 mccormick3[80]: x[80] + u[80] - r[80] <= 1
 mccormick3[81]: x[81] + u[81] - r[81] <= 1
 mccormick3[82]: x[82] + u[82] - r[82] <= 1
 mccormick3[83]: x[83] + u[83] - r[83] <= 1
 mccormick3[84]: x[84] + u[84] - r[84] <= 1
 mccormick3[85]: x[85] + u[85] - r[85] <= 1
 mccormick3[86]: x[86] + u[86] - r[86] <= 1
 mccormick3[87]: x[87] + u[87] - r[87] <= 1
 mccormick3[88]: x[88] + u[88] - r[88] <= 1
 mccormick3[89]: x[89] + u[89] - r[89] <= 1
 mccormick3[90]: x[90] + u[90] - r[90] <= 1
 mccormick3[91]: x[91] + u[91] - r[91] <= 1
 mccormick3[92]: x[92] + u[92] - r[92] <= 1
 mccormick3[93]: x[93] + u[93] - r[93] <= 1
 mccormick3[94]: x[94] + u[94] - r[94] <= 1
 mccormick3[95]: x[95] + u[95] - r[95] <= 1
 mccormick3[96]: x[96] + u[96] - r[96] <= 1
 mccormick3[97]: x[97] + u[97] - r[97] <= 1
 mccormick3[98]: x[98] + u[98] - r[98] <= 1
 mccormick3[99]: x[99] + u[99] - r[99] <= 1
 mccormick3[100]: x[100] + u[100] - r[100] <= 1
 mccormick3[101]: x[101] + u[101] - r[101] <= 1
 mccormick3[102]: x[102] + u[102] - r[102] <= 1
 mccormick3[103]: x[103] + u[103] - r[103] <= 1
 mccormick3[104]: x[104] + u[104] - r[104] <= 1
 mccormick3[105]: x[105] + u[105] - r[105] <= 1
 mccormick3[106]: x[106] + u[106] - r[106] <= 1
 mccormick3[107]: x[107] + u[107] - r[107] <= 1
 mccormick3[108]: x[108] + u[108] - r[108] <= 1
 mccormick3[109]: x[109] + u[109] - r[109] <= 1
 mccormick3[110]: x[110] + u[110] - r[110] <= 1
 mccormick3[111]: x[111] + u[111] - r[111] <= 1
 mccormick3[112]: x[112] + u[112] - r[112] <= 1
 mccormick3[113]: x[113] + u[113] - r[113] <= 1
 mccormick3[114]: x[114] + u[114] - r[114] <= 1
 mccormick3[115]: x[115] + u[115] - r[115] <= 1
 mccormick3[116]: x[116] + u[116] - r[116] <= 1
 mccormick3[117]: x[117] + u[117] - r[117] <= 1
 mccormick3[118]: x[118] + u[118] - r[118] <= 1
 mccormick3[119]: x[119] + u[119] - r[119] <= 1
 mccormick3[120]: x[120] + u[120] - r[120] <= 1
 mccormick3[121]: x[121] + u[121] - r[121] <= 1
 mccormick3[122]: x[122] + u[122] - r[122] <= 1
 mccormick3[123]: x[123] + u[123] - r[123] <= 1
 mccormick3[124]: x[124] + u[124] - r[124] <= 1
 mccormick3[125]: x[125] + u[125] - r[125] <= 1
 mccormick3[126]: x[126] + u[126] - r[126] <= 1
 mccormick3[127]: x[127] + u[127] - r[127] <= 1
 mccormick3[128]: x[128] + u[128] - r[128] <= 1
 mccormick3[129]: x[129] + u[129] - r[129] <= 1
Bounds
Binaries
 x[0] x[1] x[2] x[3] x[4] x[5] x[6] x[7] x[8] x[9] x[10] x[11] x[12] x[13]
 x[14] x[15] x[16] x[17] x[18] x[19] x[20] x[21] x[22] x[23] x[24] x[25]
 x[26] x[27] x[28] x[29] x[30] x[31] x[32] x[33] x[34] x[35] x[36] x[37]
 x[38] x[39] x[40] x[41] x[42] x[43] x[44] x[45] x[46] x[47] x[48] x[49]
 x[50] x[51] x[52] x[53] x[54] x[55] x[56] x[57] x[58] x[59] x[60] x[61]
 x[62] x[63] x[64] x[65] x[66] x[67] x[68] x[69] x[70] x[71] x[72] x[73]
 x[74] x[75] x[76] x[77] x[78] x[79] x[80] x[81] x[82] x[83] x[84] x[85]
 x[86] x[87] x[88] x[89] x[90] x[91] x[92] x[93] x[94] x[95] x[96] x[97]
 x[98] x[99] x[100] x[101] x[102] x[103] x[104] x[105] x[106] x[107] x[108]
 x[109] x[110] x[111] x[112] x[113] x[114] x[115] x[116] x[117] x[118]
 x[119] x[120] x[121] x[122] x[123] x[124] x[125] x[126] x[127] x[128]
 x[129] u[0] u[1] u[2] u[3] u[4] u[5] u[6] u[7] u[8] u[9] u[10] u[11] u[12]
 u[13] u[14] u[15] u[16] u[17] u[18] u[19] u[20] u[21] u[22] u[23] u[24]
 u[25] u[26] u[27] u[28] u[29] u[30] u[31] u[32] u[33] u[34] u[35] u[36]
 u[37] u[38] u[39] u[40] u[41] u[42] u[43] u[44] u[45] u[46] u[47] u[48]
 u[49] u[50] u[51] u[52] u[53] u[54] u[55] u[56] u[57] u[58] u[59] u[60]
 u[61] u[62] u[63] u[64] u[65] u[66] u[67] u[68] u[69] u[70] u[71] u[72]
 u[73] u[74] u[75] u[76] u[77] u[78] u[79] u[80] u[81] u[82] u[83] u[84]
 u[85] u[86] u[87] u[88] u[89] u[90] u[91] u[92] u[93] u[94] u[95] u[96]
 u[97] u[98] u[99] u[100] u[101] u[102] u[103] u[104] u[105] u[106] u[107]
 u[108] u[109] u[110] u[111] u[112] u[113] u[114] u[115] u[116] u[117]
 u[118] u[119] u[120] u[121] u[122] u[123] u[124] u[125] u[126] u[127]
 u[128] u[129] r[0] r[1] r[2] r[3] r[4] r[5] r[6] r[7] r[8] r[9] r[10]
 r[11] r[12] r[13] r[14] r[15] r[16] r[17] r[18] r[19] r[20] r[21] r[22]
 r[23] r[24] r[25] r[26] r[27] r[28] r[29] r[30] r[31] r[32] r[33] r[34]
 r[35] r[36] r[37] r[38] r[39] r[40] r[41] r[42] r[43] r[44] r[45] r[46]
 r[47] r[48] r[49] r[50] r[51] r[52] r[53] r[54] r[55] r[56] r[57] r[58]
 r[59] r[60] r[61] r[62] r[63] r[64] r[65] r[66] r[67] r[68] r[69] r[70]
 r[71] r[72] r[73] r[74] r[75] r[76] r[77] r[78] r[79] r[80] r[81] r[82]
 r[83] r[84] r[85] r[86] r[87] r[88] r[89] r[90] r[91] r[92] r[93] r[94]
 r[95] r[96] r[97] r[98] r[99] r[100] r[101] r[102] r[103] r[104] r[105]
 r[106] r[107] r[108] r[109] r[110] r[111] r[112] r[113] r[114] r[115]
 r[116] r[117] r[118] r[119] r[120] r[121] r[122] r[123] r[124] r[125]
 r[126] r[127] r[128] r[129]
End
