instances/knapsack/discrete/knapsack_130_1.kp
73289
130
611

9 0.9 86
82 8.2 82
84 8.4 100
89 8.9 24
66 6.6 49
35 3.5 85
7 0.7 61
33 3.3 83
79 7.9 58
72 7.2 70
37 3.7 79
93 9.3 91
30 3.0 55
86 8.6 22
2 0.2 87
78 7.8 76
3 0.3 70
2 0.2 94
23 2.3 54
36 3.6 53
35 3.5 69
57 5.7 19
70 7.0 72
12 1.2 32
2 0.2 97
42 4.2 70
60 6.0 32
29 2.9 71
39 3.9 70
25 2.5 44
75 7.5 93
1 0.1 52
5 0.5 24
27 2.7 95
78 7.8 47
79 7.9 53
38 3.8 13
42 4.2 35
38 3.8 94
20 2.0 47
1 0.1 4
95 9.5 49
16 1.6 29
47 4.7 19
53 5.3 46
60 6.0 55
59 5.9 36
59 5.9 72
61 6.1 4
18 1.8 85
4 0.4 31
42 4.2 70
7 0.7 91
70 7.0 1
74 7.4 80
69 6.9 98
3 0.3 98
64 6.4 76
22 2.2 88
72 7.2 47
82 8.2 68
44 4.4 30
13 1.3 1
28 2.8 21
61 6.1 10
78 7.8 9
26 2.6 45
52 5.2 45
90 9.0 36
19 1.9 9
87 8.7 97
99 9.9 11
84 8.4 81
37 3.7 17
85 8.5 14
78 7.8 10
12 1.2 26
69 6.9 25
82 8.2 60
8 0.8 35
15 1.5 39
99 9.9 2
100 10.0 37
71 7.1 54
15 1.5 61
75 7.5 12
89 8.9 58
98 9.8 35
80 8.0 96
25 2.5 58
70 7.0 18
74 7.4 33
18 1.8 97
41 4.1 80
38 3.8 12
99 9.9 14
47 4.7 29
58 5.8 80
18 1.8 32
82 8.2 40
55 5.5 36
94 9.4 9
96 9.6 90
82 8.2 73
11 1.1 83
20 2.0 95
53 5.3 46
12 1.2 36
40 4.0 10
47 4.7 100
96 9.6 73
13 1.3 38
39 3.9 81
99 9.9 83
43 4.3 62
60 6.0 65
53 5.3 15
71 7.1 17
15 1.5 74
10 1.0 11
33 3.3 33
46 4.6 38
93 9.3 18
28 2.8 23
63 6.3 3
24 2.4 96
49 4.9 36
85 8.5 50
16 1.6 23
13 1.3 84

85007
626

[0.595799496175109 3.4949865347187727 0.16418100525175236 3.8760304387818416 1.7892170314762679 3.9662313133878557 2.8837470685306914 2.3845763330365735 4.282558427417518 3.167028365206969 1.3202257474361447 1.8615702489689603 2.4045420062506713 3.975033591154526 1.0072084302670623 0.2720997311808155 0.47065611349837827 0.969136046338038 1.2070213683976634 3.811737272745942 1.0153917102737373 1.7596911657867729 1.3444611538917457 4.175820778870198 2.850379845629378 0.8037269410511345 0.906280233602098 3.4916780439385584 2.780139115900522 1.5564515501851435 0.4255838207227405 4.0509536630487935 1.3118161291431436 2.243329250091178 2.042264999345533 4.152649884301238 2.3112718192124926 0.19886428475236528 2.366874946213981 2.0564846406450856 4.697395098678521 1.8895241898593353 1.852220258719714 0.16926976328197832 4.546605119070159 2.3391980758683273 1.5596896607290411 3.0557636890658246 0.5101174569990489 0.7312991157128655 0.8786524699237426 2.038293149578776 1.4597501285226753 3.379067302733556 0.6626081044732636 3.005541168158969 4.534261708930431 2.8530657459210085 1.4643934070962632 2.5240729659747934 3.736873587248797 1.9942899287935218 4.499615045082693 2.968442830425735 0.4999495636151161 0.8012722609691484 2.048256510691263 4.375495572353642 0.6634435972733294 1.3329660893509752 2.9244658119575315 4.556420301236326 0.660239550726441 2.3311871663018238 0.8733220424514962 0.43543202459294916 4.382504823233021 3.7875411660690985 2.418984778718729 3.569938136773232 4.401502391112219 2.57321394525081 2.3091171344060637 3.5507027850375708 0.5976482031783927 2.1854199918677577 2.7678631401433362 4.506817652907216 0.13026735884287677 2.699775858251844 3.7302310267798675 3.836360848993378 3.753337295241357 0.46256546261873144 1.2100584079497894 1.0181959832022511 1.3324395835537726 1.2348002078687834 3.241493655486211 4.386490368224638 4.36929979465215 2.4910880447345494 2.6791543902922466 1.279357033095507 0.67024643759304 1.3309171171248624 4.383367459171413 1.4085849237135726 3.945318650612772 3.6403245489148155 1.1497095742674914 4.128015814052032 2.514701300957493 1.841058103397588 3.776321621533035 4.78517553137079 3.6096191235878714 0.0181556670867534 2.691535660373661 3.299675915057971 0.9313106176544661 4.412028490367179 4.669675793321157 4.3439202523817295 2.558694992603888 2.0879650620942964 3.7409211730722434 3.1595039482447227 1.5549959257324253 4.120600018589818]

[92 89 95 12 33 70 46 12 2 59 16 28 73 29 45 97 98 37 6 15 50 56 57 23 13 37 47 28 70 84 74 36 76 26 21 6 1 69 1 39 80 58 83 54 48 47 18 22 100 21 47 9 38 73 53 64 22 27 57 3 13 63 16 59 84 33 21 75 5 42 34 82 59 84 12 9 87 36 25 99 66 30 83 14 90 22 64 65 87 100 5 5 89 60 45 58 78 81 57 93 94 41 27 61 94 83 40 3 27 94 91 92 38 90 78 19 92 30 26 49 24 57 36 39 86 75 72 28 95 76]
